30
1 0 4
2 0 4
2 1 7
3 0 3
3 1 7
3 2 3
4 0 4
4 1 6
4 2 2
4 3 7
5 0 5
5 1 5
5 2 2
5 3 5
5 4 5
6 0 5
6 1 5
6 2 4
6 3 2
6 4 1
6 5 1
7 0 2
7 1 1
7 2 1
7 3 1
7 4 2
7 5 2
7 6 7
8 0 6
8 1 2
8 2 4
8 3 6
8 4 4
8 5 1
8 6 7
8 7 4
9 0 6
9 1 1
9 2 2
9 3 1
9 4 6
9 5 7
9 6 6
9 7 5
9 8 1
10 0 5
10 1 5
10 2 3
10 3 3
10 4 5
10 5 4
10 6 4
10 7 3
10 8 1
10 9 1
11 0 2
11 1 4
11 2 2
11 3 7
11 4 4
11 5 6
11 6 5
11 7 1
11 8 3
11 9 6
11 10 4
12 0 6
12 1 5
12 2 2
12 3 7
12 4 5
12 5 3
12 6 4
12 7 2
12 8 5
12 9 6
12 10 7
12 11 5
13 0 2
13 1 2
13 2 3
13 3 7
13 4 5
13 5 4
13 6 6
13 7 7
13 8 6
13 9 3
13 10 5
13 11 1
13 12 7
14 0 4
14 1 4
14 2 3
14 3 6
14 4 1
14 5 4
14 6 7
14 7 7
14 8 5
14 9 5
14 10 3
14 11 1
14 12 3
14 13 1
15 0 2
15 1 6
15 2 6
15 3 7
15 4 2
15 5 1
15 6 2
15 7 5
15 8 4
15 9 5
15 10 2
15 11 1
15 12 2
15 13 6
15 14 5
16 0 6
16 1 7
16 2 5
16 3 2
16 4 7
16 5 7
16 6 6
16 7 4
16 8 6
16 9 3
16 10 4
16 11 2
16 12 6
16 13 6
16 14 4
16 15 2
17 0 4
17 1 4
17 2 3
17 3 3
17 4 6
17 5 5
17 6 1
17 7 5
17 8 4
17 9 1
17 10 2
17 11 7
17 12 7
17 13 4
17 14 3
17 15 6
17 16 6
18 0 6
18 1 4
18 2 6
18 3 1
18 4 4
18 5 3
18 6 4
18 7 3
18 8 3
18 9 1
18 10 4
18 11 4
18 12 4
18 13 6
18 14 2
18 15 3
18 16 4
18 17 6
19 0 3
19 1 1
19 2 3
19 3 7
19 4 6
19 5 3
19 6 4
19 7 5
19 8 6
19 9 2
19 10 6
19 11 2
19 12 3
19 13 6
19 14 6
19 15 5
19 16 6
19 17 2
19 18 7
20 0 3
20 1 6
20 2 4
20 3 1
20 4 6
20 5 1
20 6 1
20 7 6
20 8 4
20 9 1
20 10 3
20 11 1
20 12 7
20 13 2
20 14 6
20 15 7
20 16 6
20 17 1
20 18 6
20 19 4
21 0 7
21 1 3
21 2 5
21 3 1
21 4 7
21 5 7
21 6 4
21 7 1
21 8 3
21 9 3
21 10 3
21 11 4
21 12 7
21 13 6
21 14 7
21 15 5
21 16 6
21 17 1
21 18 6
21 19 1
21 20 4
22 0 5
22 1 4
22 2 4
22 3 1
22 4 4
22 5 3
22 6 5
22 7 1
22 8 4
22 9 4
22 10 6
22 11 1
22 12 4
22 13 6
22 14 3
22 15 4
22 16 6
22 17 4
22 18 6
22 19 7
22 20 5
22 21 5
23 0 4
23 1 5
23 2 7
23 3 3
23 4 7
23 5 1
23 6 2
23 7 4
23 8 6
23 9 6
23 10 1
23 11 7
23 12 6
23 13 6
23 14 1
23 15 4
23 16 6
23 17 6
23 18 6
23 19 4
23 20 2
23 21 7
23 22 6
24 0 4
24 1 3
24 2 7
24 3 3
24 4 4
24 5 7
24 6 5
24 7 6
24 8 3
24 9 7
24 10 6
24 11 4
24 12 5
24 13 7
24 14 1
24 15 6
24 16 6
24 17 7
24 18 1
24 19 7
24 20 4
24 21 4
24 22 7
24 23 7
25 0 7
25 1 7
25 2 6
25 3 7
25 4 6
25 5 4
25 6 1
25 7 5
25 8 4
25 9 1
25 10 7
25 11 6
25 12 1
25 13 6
25 14 3
25 15 5
25 16 6
25 17 6
25 18 4
25 19 3
25 20 3
25 21 7
25 22 2
25 23 2
25 24 7
26 0 1
26 1 2
26 2 6
26 3 7
26 4 2
26 5 2
26 6 4
26 7 6
26 8 1
26 9 4
26 10 4
26 11 6
26 12 4
26 13 6
26 14 2
26 15 2
26 16 2
26 17 5
26 18 3
26 19 1
26 20 5
26 21 4
26 22 3
26 23 6
26 24 3
26 25 3
27 0 4
27 1 6
27 2 6
27 3 3
27 4 7
27 5 2
27 6 2
27 7 2
27 8 3
27 9 3
27 10 5
27 11 5
27 12 2
27 13 4
27 14 5
27 15 5
27 16 5
27 17 4
27 18 7
27 19 3
27 20 5
27 21 2
27 22 3
27 23 3
27 24 1
27 25 6
27 26 4
28 0 5
28 1 3
28 2 4
28 3 3
28 4 7
28 5 5
28 6 3
28 7 4
28 8 4
28 9 3
28 10 7
28 11 4
28 12 6
28 13 2
28 14 2
28 15 4
28 16 6
28 17 1
28 18 4
28 19 7
28 20 7
28 21 5
28 22 6
28 23 5
28 24 6
28 25 3
28 26 1
28 27 5
29 0 1
29 1 6
29 2 2
29 3 4
29 4 7
29 5 7
29 6 3
29 7 5
29 8 1
29 9 7
29 10 5
29 11 2
29 12 5
29 13 5
29 14 6
29 15 1
29 16 4
29 17 1
29 18 6
29 19 2
29 20 6
29 21 6
29 22 4
29 23 5
29 24 5
29 25 5
29 26 6
29 27 2
29 28 5
